words_hard_train/1382.qaiger
aag 20 6 0 1 14
2
4
8
14
32
34
40
6 2 4
10 6 8
12 5 8
16 13 14
18 4 9
20 19 3
22 17 20
24 11 23
26 7 9
28 27 15
30 29 21
36 33 34
38 31 37
40 24 39
i0 2 y2[2]
i1 2 y2[3]
i2 1 x2[2]
i3 1 x2[1]
i4 2 y2[1]
i5 1 x2[0]
o0 bv[0]
c
simplified
  <
    add
      << 4
        2 y2
      << 6
        1
    << 5
      1 x2
