words_hard_train/1382.qaiger.qdimacs
p cnf 20 43
a 17 4 7 0
e 1 2 3 5 6 8 9 10 11 12 13 14 15 16 18 19 20 0
-1 -2 3 0
1 -3 0
2 -3 0
-3 -4 5 0
3 -5 0
4 -5 0
2 -4 6 0
-2 -6 0
4 -6 0
6 -7 8 0
-6 -8 0
7 -8 0
-2 4 9 0
2 -9 0
-4 -9 0
9 1 10 0
-9 -10 0
-1 -10 0
8 -10 11 0
-8 -11 0
10 -11 0
5 11 12 0
-5 -12 0
-11 -12 0
3 4 13 0
-3 -13 0
-4 -13 0
13 7 14 0
-13 -14 0
-7 -14 0
14 10 15 0
-14 -15 0
-10 -15 0
16 -17 18 0
-16 -18 0
17 -18 0
15 18 19 0
-15 -19 0
-18 -19 0
-12 19 20 0
12 -20 0
-19 -20 0
20 0
